N = 55;
F = 2;
MaxItemsPerDay = 30;
MaxDay = 50;
name = ["i1", "i2", "i3", "i4", "i5", "i6", "i7", "i8", "i9", "i10", "i11", "i12", "i13", "i14", "i15", "i16", "i17", "i18", "i19", "i20", "i21", "i22", "i23", "i24", "i25", "i26", "i27", "i28", "i29", "i30", "i31", "i32", "i33", "i34", "i35", "i36", "i37", "i38", "i39", "i40", "i41", "i42", "i43", "i44", "i45", "i46", "i47", "i48", "i49", "i50", "i51", "i52", "i53", "i54", "i55"];
kind = [1, 1, 3, 3, 1, 2, 1, 1, 2, 3, 2, 3, 3, 1, 3, 3, 1, 2, 1, 1, 3, 3, 2, 3, 3, 3, 3, 1, 3, 3, 1, 1, 2, 2, 2, 2, 2, 3, 2, 2, 1, 1, 1, 2, 3, 2, 1, 1, 1, 1, 3, 2, 3, 3, 3];
facility = [
  { 1 },
  { 1 },
  { 2 },
  { 1 },
  { 1 },
  { 1, 2 },
  { 1 },
  { 1, 2 },
  { 2 },
  { 2 },
  { 1, 2 },
  { 2 },
  { 2 },
  { 1 },
  { 1 },
  { 1 },
  { 1, 2 },
  { 1, 2 },
  { 1 },
  { 1 },
  { 1, 2 },
  { 2 },
  { 2 },
  { 1, 2 },
  { 1 },
  { 1 },
  { 1 },
  { 1, 2 },
  { 1 },
  { 2 },
  { 1, 2 },
  { 1 },
  { 1, 2 },
  { 1, 2 },
  { 1, 2 },
  { 2 },
  { 1, 2 },
  { 1, 2 },
  { 2 },
  { 1, 2 },
  { 1, 2 },
  { 1, 2 },
  { 1, 2 },
  { 2 },
  { 2 },
  { 1, 2 },
  { 1 },
  { 1, 2 },
  { 1 },
  { 1 },
  { 1 },
  { 1, 2 },
  { 1 },
  { 2 },
  { 2 }
];
producedDay = [25, 25, 22, 25, 9, 7, 25, 14, 3, 25, 15, 25, 25, 25, 14, 10, 25, 25, 7, 16, 25, 25, 25, 25, 25, 6, 15, 11, 25, 25, 25, 9, 25, 25, 25, 25, 4, 11, 25, 12, 25, 25, 25, 4, 20, 25, 1, 25, 25, 25, 25, 7, 25, 24, 16];
deadLineDay = [50, 50, 23, 50, 35, 33, 33, 24, 16, 50, 50, 48, 26, 50, 20, 22, 40, 50, 10, 48, 50, 44, 28, 50, 50, 36, 35, 24, 39, 50, 50, 10, 50, 50, 50, 50, 22, 17, 50, 19, 27, 35, 50, 42, 50, 50, 37, 42, 27, 50, 50, 50, 48, 42, 49];
